Fe2Te2
1.0
3.60673971592406 0.0 0.0
0.0 3.60673971592406 0.0
0.0 0.0 27.029495
Fe Te
2 2
Cartesian
3.4895894780600103 3.4895894780600103 3.5147540030000544
1.686215871319994 1.686215871319994 3.5147540030000544
3.4895894780600103 1.686215871319994 5.38025754565432
1.686215871319994 3.4895894780600103 1.6492504603457883

