MoS2
1.0
1.5939818713880687 -2.7608568870413697 0.0
1.5939818713880687 2.7608568870413697 0.0
0.0 0.0 34.879004
Mo S
1 2
Cartesian
1.59398 -0.9202885072399822 3.7197407130000837
1.59398 0.9202885072399822 2.153121547584768
1.59398 0.9202885072399822 5.286394757415309

